Input: ticf-13crafb.prec25.dzn
============================================================
Total Runtime: 1.3773 seconds
Input parsing: 0.0039 seconds
Constraint building: 0.7155 seconds
MaxSAT solving: 0.1850 seconds
============================================================

Total variables: 223804
Total clauses: 473991
MaxSAT found with cost: N/A
NO SOLUTION FOUND
